S = 4;
start = [|0,0,0,0,13,0,0,0,0,0,3,0,0,1,0,9|
0,0,7,0,0,0,0,15,5,0,0,0,0,4,0,0|
0,0,0,0,0,3,0,0,0,0,0,0,0,0,0,0|
0,1,0,0,0,0,0,0,0,0,0,0,0,0,0,3|
0,0,0,0,0,0,0,13,0,0,10,0,0,0,0,0|
9,0,0,0,0,0,0,0,0,0,0,0,0,0,0,0|
0,0,0,0,0,0,0,0,0,0,0,11,0,0,0,0|
0,0,0,0,0,0,0,0,0,0,0,0,0,0,0,13|
12,0,0,0,0,0,0,0,0,0,0,0,0,0,4,0|
5,0,0,0,0,0,0,0,0,0,0,1,2,0,0,0|
0,0,0,0,0,0,0,0,0,0,0,0,0,0,0,0|
0,0,0,0,0,0,0,0,0,0,0,0,0,0,0,0|
0,0,0,9,0,0,0,0,7,0,0,0,0,2,11,0|
0,0,0,0,0,8,0,0,0,0,0,0,0,0,0,0|
0,0,0,0,0,0,0,0,0,0,0,0,0,13,0,0|
0,0,0,0,0,13,0,0,0,0,0,0,15,5,0,0|];